UNIT = 3;
FIXED = 30;
fixed_points = [|
    1, 4, 4 |
    1, 5, 6 |
    1, 6, 9 |
    1, 8, 2 |
    2, 1, 5 |
    2, 2, 9 |
    2, 5, 3 |
    2, 7, 7 |
    3, 3, 4 |
    3, 5, 5 |
    3, 9, 6 |
    4, 2, 2 |
    4, 3, 7 |
    4, 5, 4 |
    4, 6, 6 |
    6, 4, 5 |
    6, 5, 2 |
    6, 7, 1 |
    6, 8, 6 |
    7, 1, 7 |
    7, 5, 1 |
    7, 7, 6 |
    8, 3, 1 |
    8, 5, 8 |
    8, 8, 7 |
    8, 9, 9 |
    9, 2, 8 |
    9, 4, 9 |
    9, 5, 7 |
    9, 6, 5 |
|];
